c --- [ banner ] -------------------------------------------------------------
c 
c CaDiCaL Radically Simplified CDCL SAT Solver
c Copyright (c) 2016-2021 A. Biere, M. Fleury, N. Froleyks
c 
c Version 1.5.2 a5f15211db36c3956764e18194dd5bd63bf3b5e6
c g++ (GCC) 9.3.0 -Wall -Wextra -O3 -DNDEBUG
c Fri Oct 21 01:27:37 EDT 2022 Linux gra-login3 3.10.0-1160.66.1.el7.x86_64 x86_64
c 
c --- [ limit ] --------------------------------------------------------------
c 
c setting conflict limit to 200000 conflicts (due to '200000')
c 
c --- [ parsing input ] ------------------------------------------------------
c 
c reading DIMACS file from '33.cubes5922.adj'
c opening file to read '33.cubes5922.adj'
c found 'p cnf 6160 1595469' header
c parsed 1595469 clauses in 20.00 seconds process time
c closing file '33.cubes5922.adj'
c after reading 1457566736 bytes 1390.0 MB
c 
c --- [ options ] ------------------------------------------------------------
c 
c all options are set to their default value
c 
c --- [ solving ] ------------------------------------------------------------
c 
c time measured in process time since initialization
c 
c  seconds    reductions  redundant   irredundant
c          MB     restarts       trail       variables
c            level   conflicts       glue         remaining
c 
c * 20.00 1372  0 0   0    0    0  0% 0 1595422 2490 40%
c { 20.93 1415  0 0   0    0    0  0% 0 1595422 2490 40%
c i 20.98 1416 435 0   0    3    1 23% 1 1595422 2395 39%
c i 20.98 1416 344 0   0    4    1 20% 0 1595422 2392 39%
c i 21.71 1451 1066 0   0   17   13 36% 1 1595422 2387 39%
c i 23.00 1481 821 0   3   40   33 36% 4 1595422 2378 39%
c i 23.07 1483 800 0   3   41   33 35% 4 1595422 2377 39%
c i 23.60 1489 585 0   7   58   46 33% 6 1595422 2376 39%
c i 23.64 1489 574 0   8   59   46 33% 6 1595422 2375 39%
c i 23.80 1490 496 0  10   68   53 33% 7 1595422 2374 39%
c i 23.86 1491 450 0  12   75   58 33% 8 1595422 2373 39%
c i 23.97 1493 422 0  14   80   62 33% 8 1595422 2372 39%
c i 24.17 1495 398 0  15   88   68 32% 8 1595422 2371 38%
c i 24.82 1498 256 0  29  142   81 27% 10 1595422 2368 38%
c i 25.14 1501 241 0  32  152   90 28% 11 1595422 2367 38%
c i 25.21 1501 235 0  33  156   93 28% 11 1595422 2366 38%
c i 25.70 1503 208 0  40  178  111 28% 11 1595422 2365 38%
c i 25.91 1504 198 0  43  190  120 28% 11 1595422 2352 38%
c i 25.91 1504 197 0  43  191  120 28% 11 1595422 2338 38%
c i 25.91 1504 195 0  44  192  120 27% 11 1595422 2336 38%
c 
c  seconds     reductions  redundant    irredundant
c          MB      restarts       trail        variables
c             level   conflicts       glue          remaining
c 
c i 25.91 1504 193 0  44  194  121 27% 11 1595422 2335 38%
c i 26.18 1504 182 0  44  210  132 27% 10 1595422 2334 38%
c i 26.74 1506 152 0  49  279  188 26% 11 1595422 2333 38%
c i 27.20 1508 149 0  52  291  198 27% 13 1595422 2332 38%
c - 31.32 1418 146 1  55  304  206 27% 13 337685 2332 38%
c i 32.23 1419 129 1  71  379  260 26% 16 337685 2331 38%
c i 32.84 1419 114 1  94  473  341 26% 17 337685 2330 38%
c i 32.95 1420 114 1  95  481  345 26% 16 337685 2327 38%
c i 33.16 1420 115 1 101  506  363 26% 19 337685 2326 38%
c i 33.83 1420 110 1 115  555  406 26% 20 337685 2325 38%
c i 33.83 1420 110 1 115  556  406 26% 20 337685 2324 38%
c i 33.87 1420 109 1 116  558  407 26% 20 337685 2323 38%
c i 34.00 1420 109 1 117  563  411 26% 20 337685 2322 38%
c i 34.41 1420 108 1 127  611  445 26% 21 337685 2317 38%
c i 34.49 1421 108 1 128  621  448 26% 20 337685 2308 37%
c i 34.55 1421 108 1 128  627  452 26% 20 337685 2307 37%
c i 34.93 1421 108 1 133  660  479 26% 20 337685 2298 37%
c i 34.97 1421 108 1 133  661  479 26% 20 337685 2297 37%
c i 35.11 1421 109 1 134  677  489 26% 20 337685 2292 37%
c i 35.13 1421 109 1 134  680  490 26% 21 337685 2291 37%
c 
c  seconds     reductions  redundant   irredundant
c          MB      restarts       trail       variables
c             level   conflicts       glue         remaining
c 
c i 35.16 1421 109 1 135  682  491 26% 21 337685 2290 37%
c i 35.16 1421 109 1 135  683  491 26% 21 337685 2289 37%
c i 36.11 1421 102 1 158  782  578 27% 22 337685 2288 37%
c i 36.21 1421 102 1 162  797  588 27% 23 337685 2287 37%
c i 36.29 1421 102 1 163  804  594 27% 23 337685 2286 37%
c i 36.49 1422 102 1 168  823  611 27% 24 337685 2285 37%
c i 36.65 1422 102 1 170  831  618 27% 24 337685 2284 37%
c i 37.55 1422 96 1 188  936  705 27% 24 337685 2283 37%
c i 37.57 1422 95 1 188  943  710 27% 24 337685 2282 37%
c i 37.59 1422 95 1 188  948  713 27% 24 337685 2281 37%
c } 38.11 1422 93 1 196 1000  755 27% 24 337685 2281 37%
c [ 38.11 1422  0 1 196 1000  755  0% 0 337685 2281 37%
c O 38.15 1423 12 1 196 1002  756 23% 3 337685 2281 37%
c i 38.15 1423 12 1 196 1002  756 23% 3 337685 2233 36%
c i 38.59 1423 35 1 196 1205  895 31% 29 337685 2232 36%
c - 39.34 1496 35 2 196 1221  828 31% 29 336538 2232 36%
c i 39.46 1496 35 2 196 1234  838 30% 28 336538 2231 36%
c i 39.59 1496 34 2 196 1292  869 30% 28 336538 2230 36%
c i 39.65 1496 33 2 196 1372  917 30% 27 336538 2229 36%
c i 39.77 1496 27 2 196 1768 1129 30% 23 336538 2228 36%
c 
c  seconds    reductions  redundant   irredundant
c          MB     restarts       trail       variables
c            level   conflicts       glue         remaining
c 
c i 39.79 1496 27 2 196 1840 1178 30% 23 336538 2227 36%
c i 39.91 1496 24 2 197 2307 1413 30% 20 336538 2226 36%
c i 39.92 1496 23 2 197 2373 1448 30% 20 336538 2225 36%
c i 39.92 1496 23 2 197 2376 1449 30% 20 336538 2224 36%
c i 39.95 1496 23 2 197 2478 1497 31% 20 336538 2223 36%
c - 40.41 1494 23 3 197 2596 1175 31% 20 336511 2223 36%
c i 40.77 1494 23 3 197 2622 1186 47% 19 336511 2222 36%
c i 40.79 1494 22 3 197 2645 1198 47% 19 336511 2221 36%
c i 40.82 1494 22 3 197 2691 1218 48% 19 336511 2220 36%
c i 40.82 1494 22 3 197 2692 1218 48% 19 336511 2219 36%
c i 40.85 1494 22 3 197 2775 1270 50% 19 336511 2218 36%
c i 40.85 1494 22 3 197 2783 1274 50% 19 336511 2217 36%
c i 40.85 1494 22 3 197 2785 1274 50% 19 336511 2216 36%
c i 40.87 1494 22 3 197 2880 1318 50% 19 336511 2215 36%
c i 40.90 1494 22 3 197 2951 1356 51% 19 336511 2214 36%
c ] 40.91 1494 22 3 197 3000 1376 51% 19 336511 2214 36%
c { 40.91 1494 93 3 197 3000 1376 75% 24 336511 2214 36%
c F 40.93 1494 93 3 197 3005 1378 75% 24 336511 2214 36%
c i 40.93 1494 93 3 197 3005 1378 75% 24 336511 2213 36%
c i 41.19 1494 91 3 197 3022 1391 74% 24 336511 2212 36%
c 
c  seconds    reductions  redundant   irredundant
c          MB     restarts       trail       variables
c            level   conflicts       glue         remaining
c 
c i 41.39 1494 86 3 197 3094 1428 72% 23 336511 2211 36%
c i 41.76 1494 83 3 203 3194 1503 70% 23 336511 2200 36%
c i 42.59 1494 83 3 223 3271 1574 68% 24 336511 2196 36%
c i 43.67 1494 88 3 253 3402 1677 66% 29 336511 2195 36%
c i 44.18 1494 87 3 263 3440 1713 65% 29 336511 2194 36%
c i 44.35 1494 87 3 268 3464 1735 65% 29 336511 2193 36%
c i 44.36 1494 87 3 269 3466 1736 65% 29 336511 2192 36%
c i 45.08 1494 86 3 295 3571 1831 63% 30 336511 2183 35%
c i 45.50 1494 86 3 307 3627 1880 62% 30 336511 2176 35%
c i 45.61 1494 85 3 310 3649 1898 62% 30 336511 2175 35%
c i 46.19 1494 78 3 312 3928 2111 60% 30 336511 2172 35%
c i 46.28 1494 79 3 312 3941 2122 60% 30 336511 2170 35%
c i 46.83 1494 79 3 325 4006 2178 59% 30 336511 2168 35%
c - 48.38 1355 73 4 345 4430 1926 57% 30 335998 2168 35%
c d 49.30 1355 63 4 345 5000 2284 55% 27 295794 2156 35%
c 3 49.33 1355 63 4 345 5000 3234 55% 27 295794 2156 35%
c 2 49.40 1355 63 4 345 5000 3299 55% 27 295793 2155 35%
c p 60.02 1355 63 4 345 5000 8727 55% 27 295793 2053 33%
c d 60.48 1355 63 4 345 5000 8259 55% 27 279292 2041 33%
c # 61.26 1354 51 4 345 6006 8841 54% 24 279292 2041 33%
c 
c  seconds    reductions  redundant   irredundant
c          MB     restarts       trail       variables
c            level   conflicts       glue         remaining
c 
c - 62.08 1355 46 5 345 6722 2704 53% 22 279292 2041 33%
c } 62.22 1355 45 5 345 7000 2908 53% 22 279292 2041 33%
c [ 62.22 1355 22 5 345 7000 2908 51% 19 279292 2041 33%
c - 63.34 1356 22 6 347 9327 3121 50% 18 279292 2041 33%
c I 63.69 1356 22 6 347 10008 3551 50% 19 279292 2041 33%
c - 66.22 1357 41 7 349 12364 3762 49% 33 279292 2041 33%
c ] 67.84 1357 48 7 350 15000 5756 48% 39 279292 2041 33%
c { 67.84 1357 45 7 350 15000 5756 53% 22 279292 2041 33%
c 2 67.90 1357 45 7 350 15000 6648 53% 22 279290 2041 33%
c p 70.11 1357 45 7 350 15000 11198 53% 22 279290 2041 33%
c B 70.32 1357 45 7 350 15012 11207 53% 22 279290 2041 33%
c - 70.93 1357 41 8 353 15836 4700 52% 21 279290 2041 33%
c s 72.07 1357 34 8 363 18649 6429 51% 20 276895 2041 33%
c v 77.11 1357 34 8 363 18649 6429 51% 20 276855 2041 33%
c t 77.23 1357 34 8 363 18649 6391 51% 20 276814 2041 33%
c e 78.05 1358 34 8 363 18649 5772 51% 20 274487 760 12%
c s 78.18 1358 34 8 363 18649 5771 51% 20 273740 760 12%
c - 80.40 1358 33 9 369 19740 4470 69% 19 273740 760 12%
c W 81.97 1358 32 9 459 21013 5447 68% 19 273740 760 12%
c - 85.19 1357 31 10 599 24052 5261 68% 19 273740 760 12%
c 
c  seconds    reductions    redundant   irredundant
c          MB      restarts        trail       variables
c            level     conflicts       glue        remaining
c 
c } 86.21 1357 29 10 612 25452 6219 68% 19 273740 760 12%
c 1 86.21 1358 29 10 612 25452 6219 68% 19 273740 760 12%
c 
c --- [ writing output ] -----------------------------------------------------
c 
c writing simplified CNF to DIMACS file 'simp/33.cubes5922.adj.simp1'
c * 86.21 1358 29 10 612 25452 6219 68% 19 273740 760 12%
c opening file to write 'simp/33.cubes5922.adj.simp1'
c writing 'p cnf 6160 273740' header
c closing file 'simp/33.cubes5922.adj.simp1'
c after writing 106081677 bytes 101.2 MB
c wrote 273740 clauses in 0.81 seconds process time
c 
c --- [ writing extension ] --------------------------------------------------
c 
c writing extension stack to 'simp/33.cubes5922.adj.ext1'
c opening file to write 'simp/33.cubes5922.adj.ext1'
c closing file 'simp/33.cubes5922.adj.ext1'
c after writing 85208 bytes 0.1 MB
c wrote 3880 witnesses in 0.00 seconds process time
c 
c --- [ result ] -------------------------------------------------------------
c 
s SATISFIABLE
c 
c --- [ run-time profiling ] -------------------------------------------------
c 
c process time taken by individual solving procedures
c (percentage relative to process time for solving)
c 
c        45.33   68.46% search
c        35.75   54.00% unstable
c        20.88   31.54% simplify
c        20.00   30.20% parse
c        12.82   19.36% probe
c         8.43   12.73% stable
c         5.13    7.74% vivify
c         1.55    2.34% elim
c         0.93    1.40% lucky
c         0.24    0.37% subsume
c         0.22    0.33% walk
c         0.09    0.14% ternary
c   =================================
c        66.21   76.08% solve
c 
c last line shows process time for solving
c (percentage relative to total process time)
c 
c --- [ statistics ] ---------------------------------------------------------
c 
c chronological:              5137        20.18 %  of conflicts
c conflicts:                 25452       384.42    per second
c decisions:                 68240      1030.67    per second
c eliminated:                 1281        20.80 %  of all variables
c fixed:                       951        15.44 %  of all variables
c learned:                   24818        97.51 %  per conflict
c learned_lits:            3808577       100.00 %  learned literals
c minimized:                     0         0.00 %  learned literals
c shrunken:                2439265        64.05 %  learned literals
c minishrunken:             215948         5.67 %  learned literals
c propagations:            3512334         0.05 M  per second
c reduced:                   10878        42.74 %  per conflict
c rephased:                      6      4242.00    interval
c restarts:                    612        41.59    interval
c stabilizing:                   2        39.29 %  of conflicts
c substituted:                  24         0.39 %  of all variables
c subsumed:                  10217         0.30 %  of all clauses
c strengthened:              10606         0.31 %  of all clauses
c ternary:                    1913         0.58 %  of resolved
c vivified:                     60         0.00 %  of all clauses
c walked:                        1     25452.00    interval
c weakened:                   2929         3.03    average size
c 
c seconds are measured in process time for solving
c 
c --- [ resources ] ----------------------------------------------------------
c 
c total process time since initialization:        87.02    seconds
c total real time since initialization:           91.52    seconds
c maximum resident set size of process:         1636.56    MB
c 
c --- [ shutting down ] ------------------------------------------------------
c 
c exit 10
WARNING! DIMACS header mismatch: wrong number of variables.
============================[ Problem Statistics ]=============================
|                                                                             |
|  Number of variables:          3246                                         |
|  Number of clauses:          273752                                         |
|  Parse time:                   1.48 s                                       |
|  Simplification time:          0.03 s                                       |
|                                                                             |
============================[ Search Statistics ]====================================================
| Conflicts |          ORIGINAL         |          LEARNT          | Num Sols |      SUBGRAPHS      |
|           |    Vars  Clauses Literals |    Limit  Clauses Lit/Cl |          | Canonical Noncanon. |
=====================================================================================================
|       114 |    3148   273766 23060853 |     2000      114     90 |        0 |        12        14 |
|       264 |    3148   273766 23060853 |     2000      264     75 |        0 |        30        14 |
|       491 |    3148   273768 23060991 |     2000      491     79 |        0 |        37        16 |
|      2162 |    3148   275102 23082552 |     3602     1164     15 |        0 |       579      1350 |
|      4671 |    3148   277105 23113762 |     5004     1875     14 |        0 |      1079      3353 |
|      5447 |    3148   277122 23114008 |     5004     2651     28 |        0 |      1098      3370 |
|      6605 |    3148   277141 23114278 |     5004     3809     42 |        0 |      1112      3389 |
|      8344 |    3148   277172 23114743 |     6310     3054     32 |        0 |      1140      3420 |
|     10944 |    3148   277210 23115343 |     6310     5654     49 |        0 |      1156      3458 |
|     14825 |    3148   277247 23115989 |     7563     6388     46 |        0 |      1175      3495 |
|     22944 |    3148   279600 23150585 |     9999     6343     25 |        0 |      1721      5848 |
|     35225 |    3148   283232 23204673 |    12408     8033     33 |        0 |      2483      9480 |
|     58768 |    3148   293801 23365169 |    16009    11177     28 |        0 |      4423     20049 |
|     86139 |    3148   301711 23478339 |    19613    12752     34 |        0 |      5469     27959 |
|    117627 |    3148   304007 23515486 |    23221    13048     26 |        0 |      5824     30255 |
|    162293 |    3148   304884 23529347 |    26806    21099     35 |        0 |      5953     31132 |
=====================================================================================================
Number of solutions   : 0
Canonical subgraphs   : 8514           (8 /sec)
          order  3    : 1              (200000 /sec)
          order  4    : 1              (500000 /sec)
          order  5    : 1              (250000 /sec)
          order  6    : 1              (55556 /sec)
          order  7    : 1              (8772 /sec)
          order  8    : 2              (1365 /sec)
          order  9    : 6              (315 /sec)
          order 10    : 11             (55 /sec)
          order 11    : 38             (13 /sec)
          order 12    : 184            (6 /sec)
          order 13    : 1057           (6 /sec)
          order 14    : 7211           (8 /sec)
          order 15    : 0              (-nan /sec)
          order 16    : 0              (-nan /sec)
          order 17    : 0              (-nan /sec)
          order 18    : 0              (-nan /sec)
          order 19    : 0              (-nan /sec)
          order 20    : 0              (-nan /sec)
          order 21    : 0              (-nan /sec)
          order 22    : 0              (-nan /sec)
Noncanonical subgraphs: 94363          (66 /sec)
          order  3    : 0              (-nan /sec)
          order  4    : 0              (-nan /sec)
          order  5    : 0              (-nan /sec)
          order  6    : 0              (-nan /sec)
          order  7    : 0              (-nan /sec)
          order  8    : 0              (-nan /sec)
          order  9    : 0              (-nan /sec)
          order 10    : 0              (-nan /sec)
          order 11    : 0              (-nan /sec)
          order 12    : 0              (-nan /sec)
          order 13    : 2338           (19435 /sec)
          order 14    : 4460           (195 /sec)
          order 15    : 87565          (62 /sec)
          order 16    : 0              (-nan /sec)
          order 17    : 0              (-nan /sec)
          order 18    : 0              (-nan /sec)
          order 19    : 0              (-nan /sec)
          order 20    : 0              (-nan /sec)
          order 21    : 0              (-nan /sec)
Canonicity checking   : 1084.76 s
Noncanonicity checking: 1438.9 s
Total canonicity time : 2523.65 s
database reductions   : 26
restarts              : 615
conflicts             : 259389         (98 /sec)
decisions             : 415262         (0.00 % random) (157 /sec)
propagations          : 12530694       (4735 /sec)
conflict literals     : 11870918       (60.52 % deleted)
actual reward         : 0.207910
Memory used           : 287.00 MB
CPU time              : 2646.46 s

UNSATISFIABLE
